/*---------------------------------------------------------------------------------------------------------------------------------------
Course: Modelling and optimisation of energy systems course spring semester 2018
EPFL Campus energ system optimization
IPESE, EPFL
---------------------------------------------------------------------------------------------------------------------------------------*/

/*---------------------------------------------------------------------------------------------------------------------------------------
This is a data file which will contains the informations on sets and parameters. Depending on the modifications and additions to the 
model, the data file is  subject to change.
---------------------------------------------------------------------------------------------------------------------------------------*/

/*---------------------------------------------------------------------------------------------------------------------------------------
Sets
---------------------------------------------------------------------------------------------------------------------------------------*/
set Time := 															# set for defining the time steps
1
2
3
4
5
6;	

set Technologies := 													# set of technologies
Boiler 
PV 
SOFC
Geothermal
HP2stage
HP1stageLT
HP1stageMT
Cogen
HPDatacenter
HPWaste
;			

set Grids :=															# set of grid units
ElecGridBuy 
ElecGridSell 
NatGasGrid 
;	

set Layers :=															# set of layers (resources)
Natgas
Electricity
Biogas
;	

set HeatingLevel :=														# set of heating levels
LowT 
MediumT
;										

set UtilityType :=														# set of utility type
Heating 
ElectricitySup 
ElectricityCons
;

set UtilitiesOfType[Heating] :=											# set to assign utilities to utility type
Boiler
SOFC
Geothermal
HP2stage
HP1stageLT
HP1stageMT
Cogen
HPDatacenter
HPWaste
;

set UtilitiesOfType[ElectricitySup] :=
PV
SOFC
Geothermal
Cogen
ElecGridBuy
;

set UtilitiesOfType[ElectricityCons] :=
HP2stage
HP1stageLT
HP1stageMT
HPDatacenter
HPWaste
ElecGridSell
;

set UtilitiesOfLayer[Electricity] := 
PV 
SOFC
Geothermal
HP2stage
HP1stageLT
HP1stageMT
Cogen
HPDatacenter
HPWaste
ElecGridBuy 
ElecGridSell 
;

set UtilitiesOfLayer[Natgas] :=
Boiler 
Cogen
NatGasGrid 
;

set UtilitiesOfLayer[Biogas] :=
SOFC
;

/*---------------------------------------------------------------------------------------------------------------------------------------
Generic Parameters
---------------------------------------------------------------------------------------------------------------------------------------*/
param top :=															# operating time of each time step
1 473
2 693
3 535
4 543
5 6515
6 1;

param Theating :=														# temperature of heating demand
MediumT 65
LowT 50
;


/*---------------------------------------------------------------------------------------------------------------------------------------
 Weather parameters
---------------------------------------------------------------------------------------------------------------------------------------*/
param Text := 															# external temperature [C]
1 0.15
2 0.62
3 10.99
4 12.56
5 16.0
6 -9
;

param irradiation :=													# irradiation at each time step ATTENTION --> [kW/m2] 
1 0.067
2 0.057
3 0.404
4 0.088
5 0.097
6 0
;
/*---------------------------------------------------------------------------------------------------------------------------------------
Utility paremeters
---------------------------------------------------------------------------------------------------------------------------------------*/
param Tminheating :=													# minimum temperature of the heating technologies
Boiler 120
;

param c_spec :=															# specific cost of resources
NatGasGrid 0.0303
ElecGridBuy 0.0916
ElecGridSell -0.06
;

end;
